c 0.010868310928344727 (encode time in sec)
p cnf 465 1048
1 2 3 4 0
1 2 -3 4 0
1 -2 3 4 0
1 -2 -3 4 0
-1 2 3 4 0
-1 2 -3 4 0
-1 -2 3 4 0
-1 -2 -3 4 0
5 6 7 8 0
5 6 -7 8 0
5 -6 7 8 0
5 -6 -7 8 0
-5 6 7 8 0
-5 6 -7 8 0
-5 -6 7 8 0
-5 -6 -7 8 0
9 10 11 12 0
9 10 -11 12 0
9 -10 11 12 0
9 -10 -11 12 0
-9 10 11 12 0
-9 10 -11 12 0
-9 -10 11 12 0
-9 -10 -11 12 0
13 14 15 1 2 3 5 6 7 17 0
13 14 15 1 2 3 5 6 -7 132 0
13 14 15 1 2 3 5 -6 7 134 0
13 14 15 1 2 3 5 -6 -7 133 0
13 14 15 1 2 3 -5 6 7 16 0
13 14 15 1 2 3 -5 6 -7 246 0
13 14 15 1 2 3 -5 -6 7 0
13 14 15 1 2 3 -5 -6 -7 0
13 14 15 1 2 -3 5 6 7 19 0
13 14 15 1 2 -3 5 6 -7 135 0
13 14 15 1 2 -3 5 -6 7 104 0
13 14 15 1 2 -3 5 -6 -7 105 0
13 14 15 1 2 -3 -5 6 7 152 0
13 14 15 1 2 -3 -5 6 -7 0
13 14 15 1 2 -3 -5 -6 7 0
13 14 15 1 2 -3 -5 -6 -7 0
13 14 15 1 -2 3 5 6 7 23 0
13 14 15 1 -2 3 5 6 -7 80 0
13 14 15 1 -2 3 5 -6 7 158 0
13 14 15 1 -2 3 5 -6 -7 0
13 14 15 1 -2 3 -5 6 7 0
13 14 15 1 -2 3 -5 6 -7 0
13 14 15 1 -2 3 -5 -6 7 0
13 14 15 1 -2 3 -5 -6 -7 0
13 14 15 1 -2 -3 5 6 7 136 0
13 14 15 1 -2 -3 5 6 -7 81 0
13 14 15 1 -2 -3 5 -6 7 0
13 14 15 1 -2 -3 5 -6 -7 0
13 14 15 1 -2 -3 -5 6 7 0
13 14 15 1 -2 -3 -5 6 -7 0
13 14 15 1 -2 -3 -5 -6 7 0
13 14 15 1 -2 -3 -5 -6 -7 0
13 14 15 -1 2 3 5 6 7 137 0
13 14 15 -1 2 3 5 6 -7 22 0
13 14 15 -1 2 3 5 -6 7 0
13 14 15 -1 2 3 5 -6 -7 0
13 14 15 -1 2 3 -5 6 7 0
13 14 15 -1 2 3 -5 6 -7 0
13 14 15 -1 2 3 -5 -6 7 0
13 14 15 -1 2 3 -5 -6 -7 0
13 14 15 -1 2 -3 5 6 7 86 0
13 14 15 -1 2 -3 5 6 -7 67 0
13 14 15 -1 2 -3 5 -6 7 0
13 14 15 -1 2 -3 5 -6 -7 0
13 14 15 -1 2 -3 -5 6 7 0
13 14 15 -1 2 -3 -5 6 -7 0
13 14 15 -1 2 -3 -5 -6 7 0
13 14 15 -1 2 -3 -5 -6 -7 0
13 14 15 -1 -2 3 5 6 7 193 0
13 14 15 -1 -2 3 5 6 -7 0
13 14 15 -1 -2 3 5 -6 7 0
13 14 15 -1 -2 3 5 -6 -7 0
13 14 15 -1 -2 3 -5 6 7 0
13 14 15 -1 -2 3 -5 6 -7 0
13 14 15 -1 -2 3 -5 -6 7 0
13 14 15 -1 -2 3 -5 -6 -7 0
13 14 15 -1 -2 -3 5 6 7 83 0
13 14 15 -1 -2 -3 5 6 -7 0
13 14 15 -1 -2 -3 5 -6 7 0
13 14 15 -1 -2 -3 5 -6 -7 0
13 14 15 -1 -2 -3 -5 6 7 0
13 14 15 -1 -2 -3 -5 6 -7 0
13 14 15 -1 -2 -3 -5 -6 7 0
13 14 15 -1 -2 -3 -5 -6 -7 0
13 14 -15 1 2 3 5 6 7 0
13 14 -15 1 2 3 5 6 -7 106 0
13 14 -15 1 2 3 5 -6 7 190 0
13 14 -15 1 2 3 5 -6 -7 20 0
13 14 -15 1 2 3 -5 6 7 72 0
13 14 -15 1 2 3 -5 6 -7 184 0
13 14 -15 1 2 3 -5 -6 7 32 0
13 14 -15 1 2 3 -5 -6 -7 0
13 14 -15 1 2 -3 5 6 7 107 0
13 14 -15 1 2 -3 5 6 -7 117 0
13 14 -15 1 2 -3 5 -6 7 113 0
13 14 -15 1 2 -3 5 -6 -7 247 0
13 14 -15 1 2 -3 -5 6 7 108 0
13 14 -15 1 2 -3 -5 6 -7 84 0
13 14 -15 1 2 -3 -5 -6 7 0
13 14 -15 1 2 -3 -5 -6 -7 0
13 14 -15 1 -2 3 5 6 7 44 0
13 14 -15 1 -2 3 5 6 -7 238 0
13 14 -15 1 -2 3 5 -6 7 199 0
13 14 -15 1 -2 3 5 -6 -7 240 0
13 14 -15 1 -2 3 -5 6 7 119 0
13 14 -15 1 -2 3 -5 6 -7 152 0
13 14 -15 1 -2 3 -5 -6 7 0
13 14 -15 1 -2 3 -5 -6 -7 0
13 14 -15 1 -2 -3 5 6 7 85 0
13 14 -15 1 -2 -3 5 6 -7 139 0
13 14 -15 1 -2 -3 5 -6 7 157 0
13 14 -15 1 -2 -3 5 -6 -7 140 0
13 14 -15 1 -2 -3 -5 6 7 21 0
13 14 -15 1 -2 -3 -5 6 -7 0
13 14 -15 1 -2 -3 -5 -6 7 0
13 14 -15 1 -2 -3 -5 -6 -7 0
13 14 -15 -1 2 3 5 6 7 191 0
13 14 -15 -1 2 3 5 6 -7 185 0
13 14 -15 -1 2 3 5 -6 7 159 0
13 14 -15 -1 2 3 5 -6 -7 0
13 14 -15 -1 2 3 -5 6 7 0
13 14 -15 -1 2 3 -5 6 -7 0
13 14 -15 -1 2 3 -5 -6 7 0
13 14 -15 -1 2 3 -5 -6 -7 0
13 14 -15 -1 2 -3 5 6 7 192 0
13 14 -15 -1 2 -3 5 6 -7 160 0
13 14 -15 -1 2 -3 5 -6 7 144 0
13 14 -15 -1 2 -3 5 -6 -7 0
13 14 -15 -1 2 -3 -5 6 7 0
13 14 -15 -1 2 -3 -5 6 -7 0
13 14 -15 -1 2 -3 -5 -6 7 0
13 14 -15 -1 2 -3 -5 -6 -7 0
13 14 -15 -1 -2 3 5 6 7 141 0
13 14 -15 -1 -2 3 5 6 -7 241 0
13 14 -15 -1 -2 3 5 -6 7 0
13 14 -15 -1 -2 3 5 -6 -7 0
13 14 -15 -1 -2 3 -5 6 7 0
13 14 -15 -1 -2 3 -5 6 -7 0
13 14 -15 -1 -2 3 -5 -6 7 0
13 14 -15 -1 -2 3 -5 -6 -7 0
13 14 -15 -1 -2 -3 5 6 7 228 0
13 14 -15 -1 -2 -3 5 6 -7 0
13 14 -15 -1 -2 -3 5 -6 7 0
13 14 -15 -1 -2 -3 5 -6 -7 0
13 14 -15 -1 -2 -3 -5 6 7 0
13 14 -15 -1 -2 -3 -5 6 -7 0
13 14 -15 -1 -2 -3 -5 -6 7 0
13 14 -15 -1 -2 -3 -5 -6 -7 0
13 -14 15 1 2 3 5 6 7 0
13 -14 15 1 2 3 5 6 -7 0
13 -14 15 1 2 3 5 -6 7 210 0
13 -14 15 1 2 3 5 -6 -7 120 0
13 -14 15 1 2 3 -5 6 7 20 0
13 -14 15 1 2 3 -5 6 -7 25 0
13 -14 15 1 2 3 -5 -6 7 196 0
13 -14 15 1 2 3 -5 -6 -7 37 0
13 -14 15 1 2 -3 5 6 7 0
13 -14 15 1 2 -3 5 6 -7 0
13 -14 15 1 2 -3 5 -6 7 198 0
13 -14 15 1 2 -3 5 -6 -7 197 0
13 -14 15 1 2 -3 -5 6 7 194 0
13 -14 15 1 2 -3 -5 6 -7 138 0
13 -14 15 1 2 -3 -5 -6 7 82 0
13 -14 15 1 2 -3 -5 -6 -7 0
13 -14 15 1 -2 3 5 6 7 0
13 -14 15 1 -2 3 5 6 -7 230 0
13 -14 15 1 -2 3 5 -6 7 175 0
13 -14 15 1 -2 3 5 -6 -7 171 0
13 -14 15 1 -2 3 -5 6 7 229 0
13 -14 15 1 -2 3 -5 6 -7 211 0
13 -14 15 1 -2 3 -5 -6 7 0
13 -14 15 1 -2 3 -5 -6 -7 0
13 -14 15 1 -2 -3 5 6 7 0
13 -14 15 1 -2 -3 5 6 -7 195 0
13 -14 15 1 -2 -3 5 -6 7 87 0
13 -14 15 1 -2 -3 5 -6 -7 227 0
13 -14 15 1 -2 -3 -5 6 7 24 0
13 -14 15 1 -2 -3 -5 6 -7 0
13 -14 15 1 -2 -3 -5 -6 7 0
13 -14 15 1 -2 -3 -5 -6 -7 0
13 -14 15 -1 2 3 5 6 7 235 0
13 -14 15 -1 2 3 5 6 -7 123 0
13 -14 15 -1 2 3 5 -6 7 161 0
13 -14 15 -1 2 3 5 -6 -7 43 0
13 -14 15 -1 2 3 -5 6 7 61 0
13 -14 15 -1 2 3 -5 6 -7 0
13 -14 15 -1 2 3 -5 -6 7 0
13 -14 15 -1 2 3 -5 -6 -7 0
13 -14 15 -1 2 -3 5 6 7 88 0
13 -14 15 -1 2 -3 5 6 -7 26 0
13 -14 15 -1 2 -3 5 -6 7 45 0
13 -14 15 -1 2 -3 5 -6 -7 93 0
13 -14 15 -1 2 -3 -5 6 7 65 0
13 -14 15 -1 2 -3 -5 6 -7 0
13 -14 15 -1 2 -3 -5 -6 7 0
13 -14 15 -1 2 -3 -5 -6 -7 0
13 -14 15 -1 -2 3 5 6 7 91 0
13 -14 15 -1 -2 3 5 6 -7 118 0
13 -14 15 -1 -2 3 5 -6 7 162 0
13 -14 15 -1 -2 3 5 -6 -7 145 0
13 -14 15 -1 -2 3 -5 6 7 0
13 -14 15 -1 -2 3 -5 6 -7 0
13 -14 15 -1 -2 3 -5 -6 7 0
13 -14 15 -1 -2 3 -5 -6 -7 0
13 -14 15 -1 -2 -3 5 6 7 114 0
13 -14 15 -1 -2 -3 5 6 -7 46 0
13 -14 15 -1 -2 -3 5 -6 7 0
13 -14 15 -1 -2 -3 5 -6 -7 200 0
13 -14 15 -1 -2 -3 -5 6 7 0
13 -14 15 -1 -2 -3 -5 6 -7 0
13 -14 15 -1 -2 -3 -5 -6 7 0
13 -14 15 -1 -2 -3 -5 -6 -7 0
13 -14 -15 1 2 3 5 6 7 0
13 -14 -15 1 2 3 5 6 -7 0
13 -14 -15 1 2 3 5 -6 7 0
13 -14 -15 1 2 3 5 -6 -7 40 0
13 -14 -15 1 2 3 -5 6 7 169 0
13 -14 -15 1 2 3 -5 6 -7 89 0
13 -14 -15 1 2 3 -5 -6 7 146 0
13 -14 -15 1 2 3 -5 -6 -7 224 0
13 -14 -15 1 2 -3 5 6 7 0
13 -14 -15 1 2 -3 5 6 -7 0
13 -14 -15 1 2 -3 5 -6 7 218 0
13 -14 -15 1 2 -3 5 -6 -7 225 0
13 -14 -15 1 2 -3 -5 6 7 194 0
13 -14 -15 1 2 -3 -5 6 -7 199 0
13 -14 -15 1 2 -3 -5 -6 7 52 0
13 -14 -15 1 2 -3 -5 -6 -7 163 0
13 -14 -15 1 -2 3 5 6 7 0
13 -14 -15 1 -2 3 5 6 -7 65 0
13 -14 -15 1 -2 3 5 -6 7 115 0
13 -14 -15 1 -2 3 5 -6 -7 121 0
13 -14 -15 1 -2 3 -5 6 7 123 0
13 -14 -15 1 -2 3 -5 6 -7 231 0
13 -14 -15 1 -2 3 -5 -6 7 127 0
13 -14 -15 1 -2 3 -5 -6 -7 0
13 -14 -15 1 -2 -3 5 6 7 0
13 -14 -15 1 -2 -3 5 6 -7 109 0
13 -14 -15 1 -2 -3 5 -6 7 62 0
13 -14 -15 1 -2 -3 5 -6 -7 66 0
13 -14 -15 1 -2 -3 -5 6 7 27 0
13 -14 -15 1 -2 -3 -5 6 -7 232 0
13 -14 -15 1 -2 -3 -5 -6 7 0
13 -14 -15 1 -2 -3 -5 -6 -7 0
13 -14 -15 -1 2 3 5 6 7 111 0
13 -14 -15 -1 2 3 5 6 -7 119 0
13 -14 -15 -1 2 3 5 -6 7 75 0
13 -14 -15 -1 2 3 5 -6 -7 244 0
13 -14 -15 -1 2 3 -5 6 7 157 0
13 -14 -15 -1 2 3 -5 6 -7 164 0
13 -14 -15 -1 2 3 -5 -6 7 0
13 -14 -15 -1 2 3 -5 -6 -7 0
13 -14 -15 -1 2 -3 5 6 7 76 0
13 -14 -15 -1 2 -3 5 6 -7 28 0
13 -14 -15 -1 2 -3 5 -6 7 237 0
13 -14 -15 -1 2 -3 5 -6 -7 103 0
13 -14 -15 -1 2 -3 -5 6 7 99 0
13 -14 -15 -1 2 -3 -5 6 -7 0
13 -14 -15 -1 2 -3 -5 -6 7 0
13 -14 -15 -1 2 -3 -5 -6 -7 0
13 -14 -15 -1 -2 3 5 6 7 63 0
13 -14 -15 -1 -2 3 5 6 -7 187 0
13 -14 -15 -1 -2 3 5 -6 7 97 0
13 -14 -15 -1 -2 3 5 -6 -7 165 0
13 -14 -15 -1 -2 3 -5 6 7 0
13 -14 -15 -1 -2 3 -5 6 -7 0
13 -14 -15 -1 -2 3 -5 -6 7 0
13 -14 -15 -1 -2 3 -5 -6 -7 0
13 -14 -15 -1 -2 -3 5 6 7 90 0
13 -14 -15 -1 -2 -3 5 6 -7 189 0
13 -14 -15 -1 -2 -3 5 -6 7 38 0
13 -14 -15 -1 -2 -3 5 -6 -7 94 0
13 -14 -15 -1 -2 -3 -5 6 7 0
13 -14 -15 -1 -2 -3 -5 6 -7 0
13 -14 -15 -1 -2 -3 -5 -6 7 0
13 -14 -15 -1 -2 -3 -5 -6 -7 0
-13 14 15 1 2 3 5 6 7 0
-13 14 15 1 2 3 5 6 -7 0
-13 14 15 1 2 3 5 -6 7 0
-13 14 15 1 2 3 5 -6 -7 0
-13 14 15 1 2 3 -5 6 7 71 0
-13 14 15 1 2 3 -5 6 -7 95 0
-13 14 15 1 2 3 -5 -6 7 47 0
-13 14 15 1 2 3 -5 -6 -7 166 0
-13 14 15 1 2 -3 5 6 7 0
-13 14 15 1 2 -3 5 6 -7 0
-13 14 15 1 2 -3 5 -6 7 0
-13 14 15 1 2 -3 5 -6 -7 174 0
-13 14 15 1 2 -3 -5 6 7 242 0
-13 14 15 1 2 -3 -5 6 -7 219 0
-13 14 15 1 2 -3 -5 -6 7 70 0
-13 14 15 1 2 -3 -5 -6 -7 48 0
-13 14 15 1 -2 3 5 6 7 0
-13 14 15 1 -2 3 5 6 -7 0
-13 14 15 1 -2 3 5 -6 7 0
-13 14 15 1 -2 3 5 -6 -7 220 0
-13 14 15 1 -2 3 -5 6 7 226 0
-13 14 15 1 -2 3 -5 6 -7 194 0
-13 14 15 1 -2 3 -5 -6 7 153 0
-13 14 15 1 -2 3 -5 -6 -7 144 0
-13 14 15 1 -2 -3 5 6 7 0
-13 14 15 1 -2 -3 5 6 -7 0
-13 14 15 1 -2 -3 5 -6 7 204 0
-13 14 15 1 -2 -3 5 -6 -7 126 0
-13 14 15 1 -2 -3 -5 6 7 29 0
-13 14 15 1 -2 -3 -5 6 -7 208 0
-13 14 15 1 -2 -3 -5 -6 7 176 0
-13 14 15 1 -2 -3 -5 -6 -7 0
-13 14 15 -1 2 3 5 6 7 0
-13 14 15 -1 2 3 5 6 -7 69 0
-13 14 15 -1 2 3 5 -6 7 112 0
-13 14 15 -1 2 3 5 -6 -7 201 0
-13 14 15 -1 2 3 -5 6 7 72 0
-13 14 15 -1 2 3 -5 6 -7 49 0
-13 14 15 -1 2 3 -5 -6 7 46 0
-13 14 15 -1 2 3 -5 -6 -7 0
-13 14 15 -1 2 -3 5 6 7 128 0
-13 14 15 -1 2 -3 5 6 -7 67 0
-13 14 15 -1 2 -3 5 -6 7 243 0
-13 14 15 -1 2 -3 5 -6 -7 147 0
-13 14 15 -1 2 -3 -5 6 7 91 0
-13 14 15 -1 2 -3 -5 6 -7 172 0
-13 14 15 -1 2 -3 -5 -6 7 200 0
-13 14 15 -1 2 -3 -5 -6 -7 0
-13 14 15 -1 -2 3 5 6 7 65 0
-13 14 15 -1 -2 3 5 6 -7 57 0
-13 14 15 -1 -2 3 5 -6 7 151 0
-13 14 15 -1 -2 3 5 -6 -7 58 0
-13 14 15 -1 -2 3 -5 6 7 43 0
-13 14 15 -1 -2 3 -5 6 -7 0
-13 14 15 -1 -2 3 -5 -6 7 0
-13 14 15 -1 -2 3 -5 -6 -7 0
-13 14 15 -1 -2 -3 5 6 7 177 0
-13 14 15 -1 -2 -3 5 6 -7 237 0
-13 14 15 -1 -2 -3 5 -6 7 60 0
-13 14 15 -1 -2 -3 5 -6 -7 35 0
-13 14 15 -1 -2 -3 -5 6 7 131 0
-13 14 15 -1 -2 -3 -5 6 -7 0
-13 14 15 -1 -2 -3 -5 -6 7 0
-13 14 15 -1 -2 -3 -5 -6 -7 0
-13 14 -15 1 2 3 5 6 7 0
-13 14 -15 1 2 3 5 6 -7 0
-13 14 -15 1 2 3 5 -6 7 0
-13 14 -15 1 2 3 5 -6 -7 0
-13 14 -15 1 2 3 -5 6 7 0
-13 14 -15 1 2 3 -5 6 -7 100 0
-13 14 -15 1 2 3 -5 -6 7 96 0
-13 14 -15 1 2 3 -5 -6 -7 221 0
-13 14 -15 1 2 -3 5 6 7 0
-13 14 -15 1 2 -3 5 6 -7 0
-13 14 -15 1 2 -3 5 -6 7 0
-13 14 -15 1 2 -3 5 -6 -7 0
-13 14 -15 1 2 -3 -5 6 7 0
-13 14 -15 1 2 -3 -5 6 -7 50 0
-13 14 -15 1 2 -3 -5 -6 7 77 0
-13 14 -15 1 2 -3 -5 -6 -7 57 0
-13 14 -15 1 -2 3 5 6 7 0
-13 14 -15 1 -2 3 5 6 -7 0
-13 14 -15 1 -2 3 5 -6 7 0
-13 14 -15 1 -2 3 5 -6 -7 182 0
-13 14 -15 1 -2 3 -5 6 7 212 0
-13 14 -15 1 -2 3 -5 6 -7 231 0
-13 14 -15 1 -2 3 -5 -6 7 78 0
-13 14 -15 1 -2 3 -5 -6 -7 157 0
-13 14 -15 1 -2 -3 5 6 7 0
-13 14 -15 1 -2 -3 5 6 -7 0
-13 14 -15 1 -2 -3 5 -6 7 200 0
-13 14 -15 1 -2 -3 5 -6 -7 202 0
-13 14 -15 1 -2 -3 -5 6 7 30 0
-13 14 -15 1 -2 -3 -5 6 -7 129 0
-13 14 -15 1 -2 -3 -5 -6 7 31 0
-13 14 -15 1 -2 -3 -5 -6 -7 96 0
-13 14 -15 -1 2 3 5 6 7 0
-13 14 -15 -1 2 3 5 6 -7 0
-13 14 -15 -1 2 3 5 -6 7 0
-13 14 -15 -1 2 3 5 -6 -7 167 0
-13 14 -15 -1 2 3 -5 6 7 53 0
-13 14 -15 -1 2 3 -5 6 -7 203 0
-13 14 -15 -1 2 3 -5 -6 7 36 0
-13 14 -15 -1 2 3 -5 -6 -7 74 0
-13 14 -15 -1 2 -3 5 6 7 0
-13 14 -15 -1 2 -3 5 6 -7 0
-13 14 -15 -1 2 -3 5 -6 7 150 0
-13 14 -15 -1 2 -3 5 -6 -7 101 0
-13 14 -15 -1 2 -3 -5 6 7 186 0
-13 14 -15 -1 2 -3 -5 6 -7 213 0
-13 14 -15 -1 2 -3 -5 -6 7 51 0
-13 14 -15 -1 2 -3 -5 -6 -7 0
-13 14 -15 -1 -2 3 5 6 7 0
-13 14 -15 -1 -2 3 5 6 -7 241 0
-13 14 -15 -1 -2 3 5 -6 7 214 0
-13 14 -15 -1 -2 3 5 -6 -7 180 0
-13 14 -15 -1 -2 3 -5 6 7 244 0
-13 14 -15 -1 -2 3 -5 6 -7 125 0
-13 14 -15 -1 -2 3 -5 -6 7 41 0
-13 14 -15 -1 -2 3 -5 -6 -7 0
-13 14 -15 -1 -2 -3 5 6 7 222 0
-13 14 -15 -1 -2 -3 5 6 -7 189 0
-13 14 -15 -1 -2 -3 5 -6 7 149 0
-13 14 -15 -1 -2 -3 5 -6 -7 62 0
-13 14 -15 -1 -2 -3 -5 6 7 98 0
-13 14 -15 -1 -2 -3 -5 6 -7 164 0
-13 14 -15 -1 -2 -3 -5 -6 7 0
-13 14 -15 -1 -2 -3 -5 -6 -7 0
-13 -14 15 1 2 3 5 6 7 0
-13 -14 15 1 2 3 5 6 -7 0
-13 -14 15 1 2 3 5 -6 7 0
-13 -14 15 1 2 3 5 -6 -7 0
-13 -14 15 1 2 3 -5 6 7 0
-13 -14 15 1 2 3 -5 6 -7 0
-13 -14 15 1 2 3 -5 -6 7 202 0
-13 -14 15 1 2 3 -5 -6 -7 110 0
-13 -14 15 1 2 -3 5 6 7 0
-13 -14 15 1 2 -3 5 6 -7 0
-13 -14 15 1 2 -3 5 -6 7 0
-13 -14 15 1 2 -3 5 -6 -7 0
-13 -14 15 1 2 -3 -5 6 7 0
-13 -14 15 1 2 -3 -5 6 -7 158 0
-13 -14 15 1 2 -3 -5 -6 7 170 0
-13 -14 15 1 2 -3 -5 -6 -7 142 0
-13 -14 15 1 -2 3 5 6 7 0
-13 -14 15 1 -2 3 5 6 -7 0
-13 -14 15 1 -2 3 5 -6 7 0
-13 -14 15 1 -2 3 5 -6 -7 0
-13 -14 15 1 -2 3 -5 6 7 0
-13 -14 15 1 -2 3 -5 6 -7 54 0
-13 -14 15 1 -2 3 -5 -6 7 73 0
-13 -14 15 1 -2 3 -5 -6 -7 122 0
-13 -14 15 1 -2 -3 5 6 7 0
-13 -14 15 1 -2 -3 5 6 -7 0
-13 -14 15 1 -2 -3 5 -6 7 0
-13 -14 15 1 -2 -3 5 -6 -7 0
-13 -14 15 1 -2 -3 -5 6 7 21 0
-13 -14 15 1 -2 -3 -5 6 -7 236 0
-13 -14 15 1 -2 -3 -5 -6 7 124 0
-13 -14 15 1 -2 -3 -5 -6 -7 196 0
-13 -14 15 -1 2 3 5 6 7 0
-13 -14 15 -1 2 3 5 6 -7 0
-13 -14 15 -1 2 3 5 -6 7 0
-13 -14 15 -1 2 3 5 -6 -7 0
-13 -14 15 -1 2 3 -5 6 7 144 0
-13 -14 15 -1 2 3 -5 6 -7 116 0
-13 -14 15 -1 2 3 -5 -6 7 148 0
-13 -14 15 -1 2 3 -5 -6 -7 56 0
-13 -14 15 -1 2 -3 5 6 7 0
-13 -14 15 -1 2 -3 5 6 -7 0
-13 -14 15 -1 2 -3 5 -6 7 144 0
-13 -14 15 -1 2 -3 5 -6 -7 55 0
-13 -14 15 -1 2 -3 -5 6 7 233 0
-13 -14 15 -1 2 -3 -5 6 -7 183 0
-13 -14 15 -1 2 -3 -5 -6 7 59 0
-13 -14 15 -1 2 -3 -5 -6 -7 42 0
-13 -14 15 -1 -2 3 5 6 7 0
-13 -14 15 -1 -2 3 5 6 -7 0
-13 -14 15 -1 -2 3 5 -6 7 168 0
-13 -14 15 -1 -2 3 5 -6 -7 154 0
-13 -14 15 -1 -2 3 -5 6 7 188 0
-13 -14 15 -1 -2 3 -5 6 -7 181 0
-13 -14 15 -1 -2 3 -5 -6 7 79 0
-13 -14 15 -1 -2 3 -5 -6 -7 167 0
-13 -14 15 -1 -2 -3 5 6 7 0
-13 -14 15 -1 -2 -3 5 6 -7 215 0
-13 -14 15 -1 -2 -3 5 -6 7 173 0
-13 -14 15 -1 -2 -3 5 -6 -7 33 0
-13 -14 15 -1 -2 -3 -5 6 7 68 0
-13 -14 15 -1 -2 -3 -5 6 -7 217 0
-13 -14 15 -1 -2 -3 -5 -6 7 92 0
-13 -14 15 -1 -2 -3 -5 -6 -7 200 0
-13 -14 -15 1 2 3 5 6 7 0
-13 -14 -15 1 2 3 5 6 -7 0
-13 -14 -15 1 2 3 5 -6 7 0
-13 -14 -15 1 2 3 5 -6 -7 0
-13 -14 -15 1 2 3 -5 6 7 0
-13 -14 -15 1 2 3 -5 6 -7 0
-13 -14 -15 1 2 3 -5 -6 7 0
-13 -14 -15 1 2 3 -5 -6 -7 178 0
-13 -14 -15 1 2 -3 5 6 7 0
-13 -14 -15 1 2 -3 5 6 -7 0
-13 -14 -15 1 2 -3 5 -6 7 0
-13 -14 -15 1 2 -3 5 -6 -7 0
-13 -14 -15 1 2 -3 -5 6 7 0
-13 -14 -15 1 2 -3 -5 6 -7 0
-13 -14 -15 1 2 -3 -5 -6 7 0
-13 -14 -15 1 2 -3 -5 -6 -7 245 0
-13 -14 -15 1 -2 3 5 6 7 0
-13 -14 -15 1 -2 3 5 6 -7 0
-13 -14 -15 1 -2 3 5 -6 7 0
-13 -14 -15 1 -2 3 5 -6 -7 0
-13 -14 -15 1 -2 3 -5 6 7 0
-13 -14 -15 1 -2 3 -5 6 -7 0
-13 -14 -15 1 -2 3 -5 -6 7 0
-13 -14 -15 1 -2 3 -5 -6 -7 239 0
-13 -14 -15 1 -2 -3 5 6 7 0
-13 -14 -15 1 -2 -3 5 6 -7 0
-13 -14 -15 1 -2 -3 5 -6 7 0
-13 -14 -15 1 -2 -3 5 -6 -7 0
-13 -14 -15 1 -2 -3 -5 6 7 0
-13 -14 -15 1 -2 -3 -5 6 -7 0
-13 -14 -15 1 -2 -3 -5 -6 7 223 0
-13 -14 -15 1 -2 -3 -5 -6 -7 179 0
-13 -14 -15 -1 2 3 5 6 7 0
-13 -14 -15 -1 2 3 5 6 -7 0
-13 -14 -15 -1 2 3 5 -6 7 0
-13 -14 -15 -1 2 3 5 -6 -7 0
-13 -14 -15 -1 2 3 -5 6 7 0
-13 -14 -15 -1 2 3 -5 6 -7 216 0
-13 -14 -15 -1 2 3 -5 -6 7 215 0
-13 -14 -15 -1 2 3 -5 -6 -7 102 0
-13 -14 -15 -1 2 -3 5 6 7 0
-13 -14 -15 -1 2 -3 5 6 -7 0
-13 -14 -15 -1 2 -3 5 -6 7 0
-13 -14 -15 -1 2 -3 5 -6 -7 0
-13 -14 -15 -1 2 -3 -5 6 7 0
-13 -14 -15 -1 2 -3 -5 6 -7 34 0
-13 -14 -15 -1 2 -3 -5 -6 7 39 0
-13 -14 -15 -1 2 -3 -5 -6 -7 143 0
-13 -14 -15 -1 -2 3 5 6 7 0
-13 -14 -15 -1 -2 3 5 6 -7 0
-13 -14 -15 -1 -2 3 5 -6 7 0
-13 -14 -15 -1 -2 3 5 -6 -7 64 0
-13 -14 -15 -1 -2 3 -5 6 7 96 0
-13 -14 -15 -1 -2 3 -5 6 -7 155 0
-13 -14 -15 -1 -2 3 -5 -6 7 205 0
-13 -14 -15 -1 -2 3 -5 -6 -7 209 0
-13 -14 -15 -1 -2 -3 5 6 7 0
-13 -14 -15 -1 -2 -3 5 6 -7 65 0
-13 -14 -15 -1 -2 -3 5 -6 7 206 0
-13 -14 -15 -1 -2 -3 5 -6 -7 35 0
-13 -14 -15 -1 -2 -3 -5 6 7 207 0
-13 -14 -15 -1 -2 -3 -5 6 -7 156 0
-13 -14 -15 -1 -2 -3 -5 -6 7 130 0
-13 -14 -15 -1 -2 -3 -5 -6 -7 234 0
248 249 250 9 10 11 13 14 15 362 0
248 249 250 9 10 11 13 14 -15 251 0
248 249 250 9 10 11 13 -14 15 384 0
248 249 250 9 10 11 13 -14 -15 270 0
248 249 250 9 10 11 -13 14 15 357 0
248 249 250 9 10 11 -13 14 -15 399 0
248 249 250 9 10 11 -13 -14 15 377 0
248 249 250 9 10 11 -13 -14 -15 352 0
248 249 250 9 10 -11 13 14 15 252 0
248 249 250 9 10 -11 13 14 -15 422 0
248 249 250 9 10 -11 13 -14 15 428 0
248 249 250 9 10 -11 13 -14 -15 292 0
248 249 250 9 10 -11 -13 14 15 358 0
248 249 250 9 10 -11 -13 14 -15 304 0
248 249 250 9 10 -11 -13 -14 15 373 0
248 249 250 9 10 -11 -13 -14 -15 293 0
248 249 250 9 -10 11 13 14 15 363 0
248 249 250 9 -10 11 13 14 -15 314 0
248 249 250 9 -10 11 13 -14 15 269 0
248 249 250 9 -10 11 13 -14 -15 262 0
248 249 250 9 -10 11 -13 14 15 280 0
248 249 250 9 -10 11 -13 14 -15 317 0
248 249 250 9 -10 11 -13 -14 15 423 0
248 249 250 9 -10 11 -13 -14 -15 329 0
248 249 250 9 -10 -11 13 14 15 253 0
248 249 250 9 -10 -11 13 14 -15 460 0
248 249 250 9 -10 -11 13 -14 15 373 0
248 249 250 9 -10 -11 13 -14 -15 347 0
248 249 250 9 -10 -11 -13 14 15 449 0
248 249 250 9 -10 -11 -13 14 -15 355 0
248 249 250 9 -10 -11 -13 -14 15 263 0
248 249 250 9 -10 -11 -13 -14 -15 319 0
248 249 250 -9 10 11 13 14 15 257 0
248 249 250 -9 10 11 13 14 -15 426 0
248 249 250 -9 10 11 13 -14 15 336 0
248 249 250 -9 10 11 13 -14 -15 424 0
248 249 250 -9 10 11 -13 14 15 300 0
248 249 250 -9 10 11 -13 14 -15 429 0
248 249 250 -9 10 11 -13 -14 15 291 0
248 249 250 -9 10 11 -13 -14 -15 309 0
248 249 250 -9 10 -11 13 14 15 254 0
248 249 250 -9 10 -11 13 14 -15 294 0
248 249 250 -9 10 -11 13 -14 15 301 0
248 249 250 -9 10 -11 13 -14 -15 328 0
248 249 250 -9 10 -11 -13 14 15 300 0
248 249 250 -9 10 -11 -13 14 -15 373 0
248 249 250 -9 10 -11 -13 -14 15 423 0
248 249 250 -9 10 -11 -13 -14 -15 434 0
248 249 250 -9 -10 11 13 14 15 464 0
248 249 250 -9 -10 11 13 14 -15 353 0
248 249 250 -9 -10 11 13 -14 15 427 0
248 249 250 -9 -10 11 13 -14 -15 352 0
248 249 250 -9 -10 11 -13 14 15 285 0
248 249 250 -9 -10 11 -13 14 -15 299 0
248 249 250 -9 -10 11 -13 -14 15 351 0
248 249 250 -9 -10 11 -13 -14 -15 400 0
248 249 250 -9 -10 -11 13 14 15 364 0
248 249 250 -9 -10 -11 13 14 -15 360 0
248 249 250 -9 -10 -11 13 -14 15 458 0
248 249 250 -9 -10 -11 13 -14 -15 374 0
248 249 250 -9 -10 -11 -13 14 15 421 0
248 249 250 -9 -10 -11 -13 14 -15 421 0
248 249 250 -9 -10 -11 -13 -14 15 329 0
248 249 250 -9 -10 -11 -13 -14 -15 330 0
248 249 -250 9 10 11 13 14 15 382 0
248 249 -250 9 10 11 13 14 -15 367 0
248 249 -250 9 10 11 13 -14 15 366 0
248 249 -250 9 10 11 13 -14 -15 256 0
248 249 -250 9 10 11 -13 14 15 264 0
248 249 -250 9 10 11 -13 14 -15 399 0
248 249 -250 9 10 11 -13 -14 15 377 0
248 249 -250 9 10 11 -13 -14 -15 352 0
248 249 -250 9 10 -11 13 14 15 348 0
248 249 -250 9 10 -11 13 14 -15 365 0
248 249 -250 9 10 -11 13 -14 15 368 0
248 249 -250 9 10 -11 13 -14 -15 292 0
248 249 -250 9 10 -11 -13 14 15 358 0
248 249 -250 9 10 -11 -13 14 -15 304 0
248 249 -250 9 10 -11 -13 -14 15 373 0
248 249 -250 9 10 -11 -13 -14 -15 293 0
248 249 -250 9 -10 11 13 14 15 340 0
248 249 -250 9 -10 11 13 14 -15 369 0
248 249 -250 9 -10 11 13 -14 15 425 0
248 249 -250 9 -10 11 13 -14 -15 262 0
248 249 -250 9 -10 11 -13 14 15 280 0
248 249 -250 9 -10 11 -13 14 -15 317 0
248 249 -250 9 -10 11 -13 -14 15 423 0
248 249 -250 9 -10 11 -13 -14 -15 329 0
248 249 -250 9 -10 -11 13 14 15 302 0
248 249 -250 9 -10 -11 13 14 -15 255 0
248 249 -250 9 -10 -11 13 -14 15 392 0
248 249 -250 9 -10 -11 13 -14 -15 347 0
248 249 -250 9 -10 -11 -13 14 15 449 0
248 249 -250 9 -10 -11 -13 14 -15 355 0
248 249 -250 9 -10 -11 -13 -14 15 263 0
248 249 -250 9 -10 -11 -13 -14 -15 319 0
248 249 -250 -9 10 11 13 14 15 346 0
248 249 -250 -9 10 11 13 14 -15 371 0
248 249 -250 -9 10 11 13 -14 15 282 0
248 249 -250 -9 10 11 13 -14 -15 424 0
248 249 -250 -9 10 11 -13 14 15 300 0
248 249 -250 -9 10 11 -13 14 -15 429 0
248 249 -250 -9 10 11 -13 -14 15 291 0
248 249 -250 -9 10 11 -13 -14 -15 309 0
248 249 -250 -9 10 -11 13 14 15 315 0
248 249 -250 -9 10 -11 13 14 -15 370 0
248 249 -250 -9 10 -11 13 -14 15 414 0
248 249 -250 -9 10 -11 13 -14 -15 328 0
248 249 -250 -9 10 -11 -13 14 15 300 0
248 249 -250 -9 10 -11 -13 14 -15 373 0
248 249 -250 -9 10 -11 -13 -14 15 423 0
248 249 -250 -9 10 -11 -13 -14 -15 434 0
248 249 -250 -9 -10 11 13 14 15 316 0
248 249 -250 -9 -10 11 13 14 -15 258 0
248 249 -250 -9 -10 11 13 -14 15 427 0
248 249 -250 -9 -10 11 13 -14 -15 352 0
248 249 -250 -9 -10 11 -13 14 15 285 0
248 249 -250 -9 -10 11 -13 14 -15 299 0
248 249 -250 -9 -10 11 -13 -14 15 351 0
248 249 -250 -9 -10 11 -13 -14 -15 400 0
248 249 -250 -9 -10 -11 13 14 15 440 0
248 249 -250 -9 -10 -11 13 14 -15 284 0
248 249 -250 -9 -10 -11 13 -14 15 458 0
248 249 -250 -9 -10 -11 13 -14 -15 374 0
248 249 -250 -9 -10 -11 -13 14 15 421 0
248 249 -250 -9 -10 -11 -13 14 -15 421 0
248 249 -250 -9 -10 -11 -13 -14 15 329 0
248 249 -250 -9 -10 -11 -13 -14 -15 330 0
248 -249 250 9 10 11 13 14 15 382 0
248 -249 250 9 10 11 13 14 -15 389 0
248 -249 250 9 10 11 13 -14 15 443 0
248 -249 250 9 10 11 13 -14 -15 259 0
248 -249 250 9 10 11 -13 14 15 430 0
248 -249 250 9 10 11 -13 14 -15 431 0
248 -249 250 9 10 11 -13 -14 15 377 0
248 -249 250 9 10 11 -13 -14 -15 352 0
248 -249 250 9 10 -11 13 14 15 348 0
248 -249 250 9 10 -11 13 14 -15 389 0
248 -249 250 9 10 -11 13 -14 15 398 0
248 -249 250 9 10 -11 13 -14 -15 260 0
248 -249 250 9 10 -11 -13 14 15 358 0
248 -249 250 9 10 -11 -13 14 -15 304 0
248 -249 250 9 10 -11 -13 -14 15 373 0
248 -249 250 9 10 -11 -13 -14 -15 293 0
248 -249 250 9 -10 11 13 14 15 334 0
248 -249 250 9 -10 11 13 14 -15 328 0
248 -249 250 9 -10 11 13 -14 15 387 0
248 -249 250 9 -10 11 13 -14 -15 401 0
248 -249 250 9 -10 11 -13 14 15 280 0
248 -249 250 9 -10 11 -13 14 -15 317 0
248 -249 250 9 -10 11 -13 -14 15 423 0
248 -249 250 9 -10 11 -13 -14 -15 329 0
248 -249 250 9 -10 -11 13 14 15 450 0
248 -249 250 9 -10 -11 13 14 -15 444 0
248 -249 250 9 -10 -11 13 -14 15 397 0
248 -249 250 9 -10 -11 13 -14 -15 393 0
248 -249 250 9 -10 -11 -13 14 15 449 0
248 -249 250 9 -10 -11 -13 14 -15 355 0
248 -249 250 9 -10 -11 -13 -14 15 263 0
248 -249 250 9 -10 -11 -13 -14 -15 319 0
248 -249 250 -9 10 11 13 14 15 320 0
248 -249 250 -9 10 11 13 14 -15 318 0
248 -249 250 -9 10 11 13 -14 15 321 0
248 -249 250 -9 10 11 13 -14 -15 445 0
248 -249 250 -9 10 11 -13 14 15 300 0
248 -249 250 -9 10 11 -13 14 -15 429 0
248 -249 250 -9 10 11 -13 -14 15 291 0
248 -249 250 -9 10 11 -13 -14 -15 309 0
248 -249 250 -9 10 -11 13 14 15 389 0
248 -249 250 -9 10 -11 13 14 -15 323 0
248 -249 250 -9 10 -11 13 -14 15 332 0
248 -249 250 -9 10 -11 13 -14 -15 328 0
248 -249 250 -9 10 -11 -13 14 15 300 0
248 -249 250 -9 10 -11 -13 14 -15 373 0
248 -249 250 -9 10 -11 -13 -14 15 423 0
248 -249 250 -9 10 -11 -13 -14 -15 434 0
248 -249 250 -9 -10 11 13 14 15 419 0
248 -249 250 -9 -10 11 13 14 -15 372 0
248 -249 250 -9 -10 11 13 -14 15 437 0
248 -249 250 -9 -10 11 13 -14 -15 352 0
248 -249 250 -9 -10 11 -13 14 15 285 0
248 -249 250 -9 -10 11 -13 14 -15 299 0
248 -249 250 -9 -10 11 -13 -14 15 351 0
248 -249 250 -9 -10 11 -13 -14 -15 400 0
248 -249 250 -9 -10 -11 13 14 15 271 0
248 -249 250 -9 -10 -11 13 14 -15 454 0
248 -249 250 -9 -10 -11 13 -14 15 265 0
248 -249 250 -9 -10 -11 13 -14 -15 374 0
248 -249 250 -9 -10 -11 -13 14 15 421 0
248 -249 250 -9 -10 -11 -13 14 -15 421 0
248 -249 250 -9 -10 -11 -13 -14 15 329 0
248 -249 250 -9 -10 -11 -13 -14 -15 330 0
248 -249 -250 9 10 11 13 14 15 382 0
248 -249 -250 9 10 11 13 14 -15 389 0
248 -249 -250 9 10 11 13 -14 15 305 0
248 -249 -250 9 10 11 13 -14 -15 342 0
248 -249 -250 9 10 11 -13 14 15 295 0
248 -249 -250 9 10 11 -13 14 -15 452 0
248 -249 -250 9 10 11 -13 -14 15 465 0
248 -249 -250 9 10 11 -13 -14 -15 352 0
248 -249 -250 9 10 -11 13 14 15 348 0
248 -249 -250 9 10 -11 13 14 -15 389 0
248 -249 -250 9 10 -11 13 -14 15 428 0
248 -249 -250 9 10 -11 13 -14 -15 432 0
248 -249 -250 9 10 -11 -13 14 15 277 0
248 -249 -250 9 10 -11 -13 14 -15 406 0
248 -249 -250 9 10 -11 -13 -14 15 373 0
248 -249 -250 9 10 -11 -13 -14 -15 293 0
248 -249 -250 9 -10 11 13 14 15 334 0
248 -249 -250 9 -10 11 13 14 -15 328 0
248 -249 -250 9 -10 11 13 -14 15 402 0
248 -249 -250 9 -10 11 13 -14 -15 286 0
248 -249 -250 9 -10 11 -13 14 15 278 0
248 -249 -250 9 -10 11 -13 14 -15 459 0
248 -249 -250 9 -10 11 -13 -14 15 423 0
248 -249 -250 9 -10 11 -13 -14 -15 329 0
248 -249 -250 9 -10 -11 13 14 15 450 0
248 -249 -250 9 -10 -11 13 14 -15 269 0
248 -249 -250 9 -10 -11 13 -14 15 442 0
248 -249 -250 9 -10 -11 13 -14 -15 272 0
248 -249 -250 9 -10 -11 -13 14 15 394 0
248 -249 -250 9 -10 -11 -13 14 -15 355 0
248 -249 -250 9 -10 -11 -13 -14 15 263 0
248 -249 -250 9 -10 -11 -13 -14 -15 319 0
248 -249 -250 -9 10 11 13 14 15 320 0
248 -249 -250 -9 10 11 13 14 -15 420 0
248 -249 -250 -9 10 11 13 -14 15 267 0
248 -249 -250 -9 10 11 13 -14 -15 268 0
248 -249 -250 -9 10 11 -13 14 15 303 0
248 -249 -250 -9 10 11 -13 14 -15 429 0
248 -249 -250 -9 10 11 -13 -14 15 291 0
248 -249 -250 -9 10 11 -13 -14 -15 309 0
248 -249 -250 -9 10 -11 13 14 15 389 0
248 -249 -250 -9 10 -11 13 14 -15 294 0
248 -249 -250 -9 10 -11 13 -14 15 359 0
248 -249 -250 -9 10 -11 13 -14 -15 266 0
248 -249 -250 -9 10 -11 -13 14 15 416 0
248 -249 -250 -9 10 -11 -13 14 -15 373 0
248 -249 -250 -9 10 -11 -13 -14 15 423 0
248 -249 -250 -9 10 -11 -13 -14 -15 434 0
248 -249 -250 -9 -10 11 13 14 15 419 0
248 -249 -250 -9 -10 11 13 14 -15 395 0
248 -249 -250 -9 -10 11 13 -14 15 312 0
248 -249 -250 -9 -10 11 13 -14 -15 287 0
248 -249 -250 -9 -10 11 -13 14 15 285 0
248 -249 -250 -9 -10 11 -13 14 -15 299 0
248 -249 -250 -9 -10 11 -13 -14 15 351 0
248 -249 -250 -9 -10 11 -13 -14 -15 400 0
248 -249 -250 -9 -10 -11 13 14 15 417 0
248 -249 -250 -9 -10 -11 13 14 -15 322 0
248 -249 -250 -9 -10 -11 13 -14 15 436 0
248 -249 -250 -9 -10 -11 13 -14 -15 451 0
248 -249 -250 -9 -10 -11 -13 14 15 421 0
248 -249 -250 -9 -10 -11 -13 14 -15 421 0
248 -249 -250 -9 -10 -11 -13 -14 15 329 0
248 -249 -250 -9 -10 -11 -13 -14 -15 330 0
-248 249 250 9 10 11 13 14 15 382 0
-248 249 250 9 10 11 13 14 -15 389 0
-248 249 250 9 10 11 13 -14 15 305 0
-248 249 250 9 10 11 13 -14 -15 270 0
-248 249 250 9 10 11 -13 14 15 407 0
-248 249 250 9 10 11 -13 14 -15 461 0
-248 249 250 9 10 11 -13 -14 15 408 0
-248 249 250 9 10 11 -13 -14 -15 352 0
-248 249 250 9 10 -11 13 14 15 348 0
-248 249 250 9 10 -11 13 14 -15 389 0
-248 249 250 9 10 -11 13 -14 15 428 0
-248 249 250 9 10 -11 13 -14 -15 292 0
-248 249 250 9 10 -11 -13 14 15 462 0
-248 249 250 9 10 -11 -13 14 -15 290 0
-248 249 250 9 10 -11 -13 -14 15 409 0
-248 249 250 9 10 -11 -13 -14 -15 293 0
-248 249 250 9 -10 11 13 14 15 334 0
-248 249 250 9 -10 11 13 14 -15 328 0
-248 249 250 9 -10 11 13 -14 15 269 0
-248 249 250 9 -10 11 13 -14 -15 262 0
-248 249 250 9 -10 11 -13 14 15 438 0
-248 249 250 9 -10 11 -13 14 -15 311 0
-248 249 250 9 -10 11 -13 -14 15 423 0
-248 249 250 9 -10 11 -13 -14 -15 329 0
-248 249 250 9 -10 -11 13 14 15 450 0
-248 249 250 9 -10 -11 13 14 -15 269 0
-248 249 250 9 -10 -11 13 -14 15 373 0
-248 249 250 9 -10 -11 13 -14 -15 273 0
-248 249 250 9 -10 -11 -13 14 15 298 0
-248 249 250 9 -10 -11 -13 14 -15 361 0
-248 249 250 9 -10 -11 -13 -14 15 263 0
-248 249 250 9 -10 -11 -13 -14 -15 319 0
-248 249 250 -9 10 11 13 14 15 320 0
-248 249 250 -9 10 11 13 14 -15 420 0
-248 249 250 -9 10 11 13 -14 15 336 0
-248 249 250 -9 10 11 13 -14 -15 385 0
-248 249 250 -9 10 11 -13 14 15 337 0
-248 249 250 -9 10 11 -13 14 -15 410 0
-248 249 250 -9 10 11 -13 -14 15 291 0
-248 249 250 -9 10 11 -13 -14 -15 309 0
-248 249 250 -9 10 -11 13 14 15 389 0
-248 249 250 -9 10 -11 13 14 -15 294 0
-248 249 250 -9 10 -11 13 -14 15 301 0
-248 249 250 -9 10 -11 13 -14 -15 411 0
-248 249 250 -9 10 -11 -13 14 15 296 0
-248 249 250 -9 10 -11 -13 14 -15 442 0
-248 249 250 -9 10 -11 -13 -14 15 423 0
-248 249 250 -9 10 -11 -13 -14 -15 434 0
-248 249 250 -9 -10 11 13 14 15 419 0
-248 249 250 -9 -10 11 13 14 -15 353 0
-248 249 250 -9 -10 11 13 -14 15 378 0
-248 249 250 -9 -10 11 13 -14 -15 324 0
-248 249 250 -9 -10 11 -13 14 15 404 0
-248 249 250 -9 -10 11 -13 14 -15 299 0
-248 249 250 -9 -10 11 -13 -14 15 351 0
-248 249 250 -9 -10 11 -13 -14 -15 400 0
-248 249 250 -9 -10 -11 13 14 15 417 0
-248 249 250 -9 -10 -11 13 14 -15 435 0
-248 249 250 -9 -10 -11 13 -14 15 297 0
-248 249 250 -9 -10 -11 13 -14 -15 439 0
-248 249 250 -9 -10 -11 -13 14 15 306 0
-248 249 250 -9 -10 -11 -13 14 -15 421 0
-248 249 250 -9 -10 -11 -13 -14 15 329 0
-248 249 250 -9 -10 -11 -13 -14 -15 330 0
-248 249 -250 9 10 11 13 14 15 382 0
-248 249 -250 9 10 11 13 14 -15 389 0
-248 249 -250 9 10 11 13 -14 15 305 0
-248 249 -250 9 10 11 13 -14 -15 270 0
-248 249 -250 9 10 11 -13 14 15 357 0
-248 249 -250 9 10 11 -13 14 -15 379 0
-248 249 -250 9 10 11 -13 -14 15 453 0
-248 249 -250 9 10 11 -13 -14 -15 274 0
-248 249 -250 9 10 -11 13 14 15 348 0
-248 249 -250 9 10 -11 13 14 -15 389 0
-248 249 -250 9 10 -11 13 -14 15 428 0
-248 249 -250 9 10 -11 13 -14 -15 292 0
-248 249 -250 9 10 -11 -13 14 15 358 0
-248 249 -250 9 10 -11 -13 14 -15 383 0
-248 249 -250 9 10 -11 -13 -14 15 380 0
-248 249 -250 9 10 -11 -13 -14 -15 293 0
-248 249 -250 9 -10 11 13 14 15 334 0
-248 249 -250 9 -10 11 13 14 -15 328 0
-248 249 -250 9 -10 11 13 -14 15 269 0
-248 249 -250 9 -10 11 13 -14 -15 262 0
-248 249 -250 9 -10 11 -13 14 15 280 0
-248 249 -250 9 -10 11 -13 14 -15 412 0
-248 249 -250 9 -10 11 -13 -14 15 455 0
-248 249 -250 9 -10 11 -13 -14 -15 329 0
-248 249 -250 9 -10 -11 13 14 15 450 0
-248 249 -250 9 -10 -11 13 14 -15 269 0
-248 249 -250 9 -10 -11 13 -14 15 373 0
-248 249 -250 9 -10 -11 13 -14 -15 347 0
-248 249 -250 9 -10 -11 -13 14 15 449 0
-248 249 -250 9 -10 -11 -13 14 -15 456 0
-248 249 -250 9 -10 -11 -13 -14 15 307 0
-248 249 -250 9 -10 -11 -13 -14 -15 319 0
-248 249 -250 -9 10 11 13 14 15 320 0
-248 249 -250 -9 10 11 13 14 -15 420 0
-248 249 -250 -9 10 11 13 -14 15 336 0
-248 249 -250 -9 10 11 13 -14 -15 424 0
-248 249 -250 -9 10 11 -13 14 15 335 0
-248 249 -250 -9 10 11 -13 14 -15 441 0
-248 249 -250 -9 10 11 -13 -14 15 386 0
-248 249 -250 -9 10 11 -13 -14 -15 309 0
-248 249 -250 -9 10 -11 13 14 15 389 0
-248 249 -250 -9 10 -11 13 14 -15 294 0
-248 249 -250 -9 10 -11 13 -14 15 301 0
-248 249 -250 -9 10 -11 13 -14 -15 328 0
-248 249 -250 -9 10 -11 -13 14 15 349 0
-248 249 -250 -9 10 -11 -13 14 -15 448 0
-248 249 -250 -9 10 -11 -13 -14 15 375 0
-248 249 -250 -9 10 -11 -13 -14 -15 434 0
-248 249 -250 -9 -10 11 13 14 15 419 0
-248 249 -250 -9 -10 11 13 14 -15 353 0
-248 249 -250 -9 -10 11 13 -14 15 427 0
-248 249 -250 -9 -10 11 13 -14 -15 275 0
-248 249 -250 -9 -10 11 -13 14 15 279 0
-248 249 -250 -9 -10 11 -13 14 -15 338 0
-248 249 -250 -9 -10 11 -13 -14 15 351 0
-248 249 -250 -9 -10 11 -13 -14 -15 400 0
-248 249 -250 -9 -10 -11 13 14 15 417 0
-248 249 -250 -9 -10 -11 13 14 -15 360 0
-248 249 -250 -9 -10 -11 13 -14 15 343 0
-248 249 -250 -9 -10 -11 13 -14 -15 345 0
-248 249 -250 -9 -10 -11 -13 14 15 310 0
-248 249 -250 -9 -10 -11 -13 14 -15 446 0
-248 249 -250 -9 -10 -11 -13 -14 15 329 0
-248 249 -250 -9 -10 -11 -13 -14 -15 330 0
-248 -249 250 9 10 11 13 14 15 382 0
-248 -249 250 9 10 11 13 14 -15 389 0
-248 -249 250 9 10 11 13 -14 15 305 0
-248 -249 250 9 10 11 13 -14 -15 270 0
-248 -249 250 9 10 11 -13 14 15 357 0
-248 -249 250 9 10 11 -13 14 -15 399 0
-248 -249 250 9 10 11 -13 -14 15 415 0
-248 -249 250 9 10 11 -13 -14 -15 433 0
-248 -249 250 9 10 -11 13 14 15 348 0
-248 -249 250 9 10 -11 13 14 -15 389 0
-248 -249 250 9 10 -11 13 -14 15 428 0
-248 -249 250 9 10 -11 13 -14 -15 292 0
-248 -249 250 9 10 -11 -13 14 15 358 0
-248 -249 250 9 10 -11 -13 14 -15 304 0
-248 -249 250 9 10 -11 -13 -14 15 261 0
-248 -249 250 9 10 -11 -13 -14 -15 333 0
-248 -249 250 9 -10 11 13 14 15 334 0
-248 -249 250 9 -10 11 13 14 -15 328 0
-248 -249 250 9 -10 11 13 -14 15 269 0
-248 -249 250 9 -10 11 13 -14 -15 262 0
-248 -249 250 9 -10 11 -13 14 15 280 0
-248 -249 250 9 -10 11 -13 14 -15 317 0
-248 -249 250 9 -10 11 -13 -14 15 281 0
-248 -249 250 9 -10 11 -13 -14 -15 341 0
-248 -249 250 9 -10 -11 13 14 15 450 0
-248 -249 250 9 -10 -11 13 14 -15 269 0
-248 -249 250 9 -10 -11 13 -14 15 373 0
-248 -249 250 9 -10 -11 13 -14 -15 347 0
-248 -249 250 9 -10 -11 -13 14 15 449 0
-248 -249 250 9 -10 -11 -13 14 -15 390 0
-248 -249 250 9 -10 -11 -13 -14 15 283 0
-248 -249 250 9 -10 -11 -13 -14 -15 288 0
-248 -249 250 -9 10 11 13 14 15 320 0
-248 -249 250 -9 10 11 13 14 -15 420 0
-248 -249 250 -9 10 11 13 -14 15 336 0
-248 -249 250 -9 10 11 13 -14 -15 424 0
-248 -249 250 -9 10 11 -13 14 15 300 0
-248 -249 250 -9 10 11 -13 14 -15 413 0
-248 -249 250 -9 10 11 -13 -14 15 350 0
-248 -249 250 -9 10 11 -13 -14 -15 276 0
-248 -249 250 -9 10 -11 13 14 15 389 0
-248 -249 250 -9 10 -11 13 14 -15 294 0
-248 -249 250 -9 10 -11 13 -14 15 301 0
-248 -249 250 -9 10 -11 13 -14 -15 328 0
-248 -249 250 -9 10 -11 -13 14 15 300 0
-248 -249 250 -9 10 -11 -13 14 -15 344 0
-248 -249 250 -9 10 -11 -13 -14 15 376 0
-248 -249 250 -9 10 -11 -13 -14 -15 326 0
-248 -249 250 -9 -10 11 13 14 15 419 0
-248 -249 250 -9 -10 11 13 14 -15 353 0
-248 -249 250 -9 -10 11 13 -14 15 427 0
-248 -249 250 -9 -10 11 13 -14 -15 352 0
-248 -249 250 -9 -10 11 -13 14 15 391 0
-248 -249 250 -9 -10 11 -13 14 -15 396 0
-248 -249 250 -9 -10 11 -13 -14 15 403 0
-248 -249 250 -9 -10 11 -13 -14 -15 400 0
-248 -249 250 -9 -10 -11 13 14 15 417 0
-248 -249 250 -9 -10 -11 13 14 -15 360 0
-248 -249 250 -9 -10 -11 13 -14 15 458 0
-248 -249 250 -9 -10 -11 13 -14 -15 374 0
-248 -249 250 -9 -10 -11 -13 14 15 354 0
-248 -249 250 -9 -10 -11 -13 14 -15 381 0
-248 -249 250 -9 -10 -11 -13 -14 15 331 0
-248 -249 250 -9 -10 -11 -13 -14 -15 330 0
-248 -249 -250 9 10 11 13 14 15 382 0
-248 -249 -250 9 10 11 13 14 -15 389 0
-248 -249 -250 9 10 11 13 -14 15 305 0
-248 -249 -250 9 10 11 13 -14 -15 270 0
-248 -249 -250 9 10 11 -13 14 15 357 0
-248 -249 -250 9 10 11 -13 14 -15 399 0
-248 -249 -250 9 10 11 -13 -14 15 377 0
-248 -249 -250 9 10 11 -13 -14 -15 356 0
-248 -249 -250 9 10 -11 13 14 15 348 0
-248 -249 -250 9 10 -11 13 14 -15 389 0
-248 -249 -250 9 10 -11 13 -14 15 428 0
-248 -249 -250 9 10 -11 13 -14 -15 292 0
-248 -249 -250 9 10 -11 -13 14 15 358 0
-248 -249 -250 9 10 -11 -13 14 -15 304 0
-248 -249 -250 9 10 -11 -13 -14 15 373 0
-248 -249 -250 9 10 -11 -13 -14 -15 405 0
-248 -249 -250 9 -10 11 13 14 15 334 0
-248 -249 -250 9 -10 11 13 14 -15 328 0
-248 -249 -250 9 -10 11 13 -14 15 269 0
-248 -249 -250 9 -10 11 13 -14 -15 262 0
-248 -249 -250 9 -10 11 -13 14 15 280 0
-248 -249 -250 9 -10 11 -13 14 -15 317 0
-248 -249 -250 9 -10 11 -13 -14 15 375 0
-248 -249 -250 9 -10 11 -13 -14 -15 308 0
-248 -249 -250 9 -10 -11 13 14 15 450 0
-248 -249 -250 9 -10 -11 13 14 -15 269 0
-248 -249 -250 9 -10 -11 13 -14 15 373 0
-248 -249 -250 9 -10 -11 13 -14 -15 347 0
-248 -249 -250 9 -10 -11 -13 14 15 449 0
-248 -249 -250 9 -10 -11 -13 14 -15 355 0
-248 -249 -250 9 -10 -11 -13 -14 15 263 0
-248 -249 -250 9 -10 -11 -13 -14 -15 418 0
-248 -249 -250 -9 10 11 13 14 15 320 0
-248 -249 -250 -9 10 11 13 14 -15 420 0
-248 -249 -250 -9 10 11 13 -14 15 336 0
-248 -249 -250 -9 10 11 13 -14 -15 424 0
-248 -249 -250 -9 10 11 -13 14 15 300 0
-248 -249 -250 -9 10 11 -13 14 -15 429 0
-248 -249 -250 -9 10 11 -13 -14 15 289 0
-248 -249 -250 -9 10 11 -13 -14 -15 447 0
-248 -249 -250 -9 10 -11 13 14 15 389 0
-248 -249 -250 -9 10 -11 13 14 -15 294 0
-248 -249 -250 -9 10 -11 13 -14 15 301 0
-248 -249 -250 -9 10 -11 13 -14 -15 328 0
-248 -249 -250 -9 10 -11 -13 14 15 300 0
-248 -249 -250 -9 10 -11 -13 14 -15 373 0
-248 -249 -250 -9 10 -11 -13 -14 15 463 0
-248 -249 -250 -9 10 -11 -13 -14 -15 325 0
-248 -249 -250 -9 -10 11 13 14 15 419 0
-248 -249 -250 -9 -10 11 13 14 -15 353 0
-248 -249 -250 -9 -10 11 13 -14 15 427 0
-248 -249 -250 -9 -10 11 13 -14 -15 352 0
-248 -249 -250 -9 -10 11 -13 14 15 285 0
-248 -249 -250 -9 -10 11 -13 14 -15 299 0
-248 -249 -250 -9 -10 11 -13 -14 15 339 0
-248 -249 -250 -9 -10 11 -13 -14 -15 327 0
-248 -249 -250 -9 -10 -11 13 14 15 417 0
-248 -249 -250 -9 -10 -11 13 14 -15 360 0
-248 -249 -250 -9 -10 -11 13 -14 15 458 0
-248 -249 -250 -9 -10 -11 13 -14 -15 374 0
-248 -249 -250 -9 -10 -11 -13 14 15 421 0
-248 -249 -250 -9 -10 -11 -13 14 -15 457 0
-248 -249 -250 -9 -10 -11 -13 -14 15 313 0
-248 -249 -250 -9 -10 -11 -13 -14 -15 388 0
